route
72
65
49
21
46
43
5
1
30
53
37
26
0
22
25
13
38
57
44
15
58
48
23
68
78
36
42
51
40
20
16
62
73
39
7
60
47
67
76
6
69
41
19
63
77
35
31
71
52
59
50
54
27
10
4
66
45
33
32
2
14
11
29
34
24
8
17
56
64
75
61
18
3
74
9
12
70
28
55
